
n_res = 4;
rcap = [51, 50, 375, 444];
rtype = [1, 1, 2, 2];
n_tasks = 100;
modes =  [{1, 2, 3}, {4, 5, 6}, {7, 8, 9}, {10, 11, 12}, {13, 14, 15}, {16, 17, 18}, {19, 20, 21}, {22, 23, 24}, {25, 26, 27}, {28, 29, 30}, {31, 32, 33}, {34, 35, 36}, {37, 38, 39}, {40, 41, 42}, {43, 44, 45}, {46, 47, 48}, {49, 50, 51}, {52, 53, 54}, {55, 56, 57}, {58, 59, 60}, {61, 62, 63}, {64, 65, 66}, {67, 68, 69}, {70, 71, 72}, {73, 74, 75}, {76, 77, 78}, {79, 80, 81}, {82, 83, 84}, {85, 86, 87}, {88, 89, 90}, {91, 92, 93}, {94, 95, 96}, {97, 98, 99}, {100, 101, 102}, {103, 104, 105}, {106, 107, 108}, {109, 110, 111}, {112, 113, 114}, {115, 116, 117}, {118, 119, 120}, {121, 122, 123}, {124, 125, 126}, {127, 128, 129}, {130, 131, 132}, {133, 134, 135}, {136, 137, 138}, {139, 140, 141}, {142, 143, 144}, {145, 146, 147}, {148, 149, 150}, {151, 152, 153}, {154, 155, 156}, {157, 158, 159}, {160, 161, 162}, {163, 164, 165}, {166, 167, 168}, {169, 170, 171}, {172, 173, 174}, {175, 176, 177}, {178, 179, 180}, {181, 182, 183}, {184, 185, 186}, {187, 188, 189}, {190, 191, 192}, {193, 194, 195}, {196, 197, 198}, {199, 200, 201}, {202, 203, 204}, {205, 206, 207}, {208, 209, 210}, {211, 212, 213}, {214, 215, 216}, {217, 218, 219}, {220, 221, 222}, {223, 224, 225}, {226, 227, 228}, {229, 230, 231}, {232, 233, 234}, {235, 236, 237}, {238, 239, 240}, {241, 242, 243}, {244, 245, 246}, {247, 248, 249}, {250, 251, 252}, {253, 254, 255}, {256, 257, 258}, {259, 260, 261}, {262, 263, 264}, {265, 266, 267}, {268, 269, 270}, {271, 272, 273}, {274, 275, 276}, {277, 278, 279}, {280, 281, 282}, {283, 284, 285}, {286, 287, 288}, {289, 290, 291}, {292, 293, 294}, {295, 296, 297}, {298, 299, 300}];
succ =  [{96, 95, 67, 66, 55, 54, 52, 50, 49, 46, 45, 44, 33, 27, 15}, {100, 99, 67, 62, 58, 55, 52, 51, 49, 47, 43, 40, 37, 27, 23, 21}, {99, 65, 56, 55, 54, 52, 45, 44, 36, 31, 27, 23, 20}, {99, 97, 96, 95, 88, 66, 62, 55, 52, 51, 50, 49, 46, 27, 15}, {100, 99, 67, 66, 52, 50, 47, 46, 44, 36, 34, 25, 21}, {100, 97, 91, 67, 63, 57, 52, 36, 25, 21}, {98, 96, 95, 94, 93, 86, 85, 84, 83, 66, 65, 64, 62, 61, 57, 54, 53, 50, 46, 45, 44}, {100, 97, 96, 94, 91, 90, 88, 86, 85, 84, 83, 81, 80, 79, 66, 63, 62, 61, 58, 52, 51, 49, 40}, {99, 97, 96, 94, 93, 92, 91, 89, 88, 86, 85, 84, 81, 67, 66, 62, 61, 57, 51, 46, 42, 41}, {99, 96, 95, 89, 88, 87, 84, 83, 75, 63, 62, 58, 56, 52, 51, 27}, {97, 95, 93, 92, 91, 90, 89, 88, 86, 85, 84, 83, 82, 79, 75, 65, 64, 63, 62, 59, 53, 51, 46}, {93, 91, 90, 89, 88, 86, 85, 84, 81, 78, 67, 65, 61, 57, 52, 51, 49, 42}, {99, 96, 95, 93, 89, 88, 86, 85, 84, 81, 67, 63, 62, 61, 42, 41}, {94, 93, 86, 80, 79, 77, 76, 66, 65, 62, 55, 52, 44, 41}, {100, 94, 93, 92, 91, 89, 86, 85, 81, 74, 71, 65, 63, 61, 59, 58, 57, 42}, {99, 96, 93, 92, 90, 88, 86, 84, 81, 75, 71, 63, 62, 59, 58, 51, 42}, {100, 95, 94, 93, 90, 88, 87, 85, 84, 83, 79, 76, 75, 71, 70, 68, 65, 62, 58, 44}, {99, 94, 93, 92, 89, 86, 78, 66, 63, 61, 59, 57, 45, 42}, {99, 97, 93, 91, 90, 89, 86, 85, 84, 81, 75, 72, 71, 68, 62, 51, 42}, {95, 89, 88, 87, 86, 83, 81, 78, 76, 71, 61, 34}, {95, 94, 93, 89, 86, 84, 78, 74, 72, 71, 68, 64, 61, 59, 42}, {94, 90, 89, 86, 82, 79, 76, 75, 74, 63, 62, 58, 57, 53, 46}, {96, 93, 92, 90, 88, 85, 84, 81, 78, 75, 72, 71, 57, 42}, {98, 94, 90, 84, 75, 58, 57, 51, 50, 45}, {98, 96, 94, 90, 85, 78, 74, 72, 71, 69, 68, 61, 42}, {94, 93, 90, 83, 81, 79, 64, 63, 62, 61, 59, 51}, {98, 94, 92, 91, 90, 85, 82, 81, 80, 79, 78, 77, 74, 73, 71, 70, 64, 57}, {92, 91, 87, 86, 85, 83, 82, 81, 80, 79, 78, 76, 75, 71, 70, 69, 65, 63}, {98, 91, 89, 85, 83, 80, 79, 78, 75, 73, 71, 70, 69, 68, 58}, {95, 91, 87, 86, 84, 80, 79, 74, 73, 72, 71, 70, 61, 57}, {98, 96, 87, 85, 82, 81, 79, 76, 61, 57, 49}, {84, 82, 81, 80, 79, 71, 70, 62, 58, 51}, {85, 84, 83, 82, 81, 80, 75, 63, 62, 51}, {92, 91, 85, 84, 80, 75, 74, 73, 70, 58, 57}, {100, 95, 88, 86, 82, 80, 77, 74, 72, 70, 69, 68}, {92, 88, 86, 78, 75, 72, 71, 51}, {96, 88, 86, 84, 76, 71, 69, 63, 61}, {97, 81, 80, 77, 75, 74, 73, 63, 57}, {90, 88, 83, 79, 73, 68, 59, 58}, {95, 89, 82, 72, 71, 59, 57}, {90, 83, 78, 74, 73, 72, 71, 68, 64}, {87, 83, 82, 80, 79, 77, 76, 73, 70}, {98, 97, 84, 76, 74, 71, 69, 68}, {97, 91, 89, 82, 81, 74, 72}, {88, 81, 76, 72, 71, 70, 68}, {78, 73, 72, 71, 70, 68}, {89, 88, 85, 76, 70, 69}, {81, 78, 72, 68, 64}, {75, 74, 71, 70, 69}, {87, 79, 78, 76, 68}, {76, 74, 73, 69}, {92, 72, 70, 68}, {81, 80, 71, 70}, {77, 72, 71, 69}, {85, 84, 75}, {86, 72, 71}, {69, 68}, {77, 72}, {77, 70}, {78, 68}, {75}, {78}, {68}, {69}, {73}, {68}, {74}, {}, {}, {}, {}, {}, {}, {}, {}, {}, {}, {}, {}, {}, {}, {}, {}, {}, {}, {}, {}, {}, {}, {}, {}, {}, {}, {}, {}, {}, {}, {}, {}, {}];
n_opt = 300;
dur = [2, 3, 4, 9, 10, 10, 8, 9, 10, 2, 3, 8, 2, 5, 7, 3, 5, 10, 1, 3, 8, 4, 8, 9, 4, 5, 10, 1, 2, 3, 5, 8, 9, 3, 5, 9, 3, 7, 10, 1, 3, 5, 1, 2, 5, 2, 5, 7, 7, 8, 10, 1, 4, 4, 5, 6, 7, 1, 3, 9, 2, 5, 7, 1, 2, 3, 4, 7, 9, 2, 5, 8, 1, 2, 2, 3, 4, 8, 2, 7, 10, 3, 3, 8, 4, 6, 9, 7, 8, 8, 1, 1, 10, 1, 1, 9, 3, 7, 10, 4, 7, 8, 1, 7, 8, 6, 8, 9, 8, 8, 9, 7, 8, 9, 8, 9, 10, 7, 9, 10, 4, 7, 9, 8, 9, 10, 2, 9, 10, 3, 7, 9, 1, 1, 5, 2, 6, 9, 3, 10, 10, 1, 2, 6, 2, 4, 9, 1, 2, 9, 3, 5, 6, 3, 4, 7, 6, 8, 9, 2, 6, 10, 2, 8, 8, 7, 7, 10, 4, 6, 8, 3, 8, 10, 2, 4, 9, 5, 8, 8, 1, 6, 9, 4, 4, 9, 4, 6, 7, 6, 9, 10, 1, 2, 7, 3, 5, 10, 6, 7, 8, 4, 7, 9, 3, 5, 7, 7, 8, 9, 4, 5, 6, 4, 7, 9, 5, 5, 9, 3, 4, 4, 3, 7, 10, 6, 6, 10, 2, 3, 7, 4, 6, 7, 2, 5, 10, 1, 6, 9, 1, 2, 6, 1, 2, 10, 2, 4, 6, 2, 8, 8, 5, 7, 8, 4, 4, 5, 2, 5, 7, 6, 7, 9, 1, 5, 10, 8, 9, 10, 5, 9, 10, 3, 5, 6, 1, 1, 8, 2, 3, 6, 4, 5, 8, 2, 3, 9, 4, 8, 10, 6, 9, 10, 5, 6, 7, 1, 4, 8];
rreq = [|4, 3, 2, 4, 3, 3, 5, 4, 3, 4, 2, 2, 4, 3, 3, 3, 3, 3, 2, 2, 2, 3, 3, 1, 3, 2, 2, 1, 1, 1, 2, 1, 1, 3, 3, 3, 5, 5, 5, 2, 2, 2, 2, 2, 2, 4, 3, 3, 4, 3, 2, 4, 3, 3, 4, 4, 3, 3, 3, 2, 3, 2, 2, 2, 2, 2, 4, 3, 2, 3, 2, 2, 5, 5, 5, 3, 1, 1, 5, 4, 2, 3, 1, 1, 3, 2, 2, 3, 1, 1, 2, 2, 1, 4, 4, 4, 4, 3, 3, 5, 4, 3, 5, 5, 5, 1, 1, 1, 3, 3, 3, 3, 2, 2, 1, 1, 1, 2, 2, 2, 4, 3, 2, 1, 1, 1, 2, 2, 2, 4, 3, 2, 3, 3, 3, 4, 4, 4, 3, 3, 3, 3, 3, 3, 4, 3, 2, 3, 3, 1, 4, 3, 3, 5, 4, 3, 4, 4, 4, 4, 4, 4, 2, 2, 2, 5, 4, 4, 1, 1, 1, 3, 1, 1, 4, 4, 4, 3, 2, 2, 4, 4, 4, 3, 1, 1, 2, 2, 2, 4, 4, 2, 3, 3, 2, 3, 2, 1, 4, 4, 4, 1, 1, 1, 3, 3, 3, 3, 3, 1, 2, 1, 1, 4, 4, 4, 3, 3, 2, 4, 3, 2, 3, 3, 3, 3, 3, 3, 1, 1, 1, 4, 4, 3, 3, 3, 2, 2, 2, 2, 2, 2, 2, 2, 1, 1, 4, 3, 2, 3, 2, 2, 3, 2, 1, 2, 2, 2, 3, 3, 3, 3, 3, 3, 5, 4, 4, 4, 3, 3, 5, 3, 1, 3, 3, 3, 2, 1, 1, 5, 3, 1, 5, 5, 5, 1, 1, 1, 4, 3, 3, 2, 2, 2, 3, 2, 2, 4, 4, 2
 |5, 4, 4, 3, 3, 3, 4, 4, 4, 1, 1, 1, 3, 1, 1, 2, 1, 1, 1, 1, 1, 5, 4, 4, 4, 4, 4, 3, 3, 2, 1, 1, 1, 4, 3, 3, 3, 2, 2, 5, 5, 5, 2, 2, 2, 3, 2, 1, 3, 2, 2, 4, 3, 2, 3, 3, 3, 4, 4, 4, 4, 3, 3, 4, 4, 4, 1, 1, 1, 1, 1, 1, 3, 2, 1, 4, 4, 4, 1, 1, 1, 5, 5, 5, 3, 3, 2, 4, 3, 1, 2, 1, 1, 3, 3, 3, 3, 3, 3, 2, 2, 2, 3, 2, 2, 2, 2, 2, 3, 2, 2, 5, 5, 5, 1, 1, 1, 3, 3, 1, 4, 2, 2, 2, 2, 2, 3, 2, 1, 2, 1, 1, 5, 3, 3, 4, 3, 3, 3, 2, 2, 4, 4, 3, 2, 2, 2, 3, 3, 2, 3, 2, 2, 5, 4, 3, 3, 2, 1, 5, 4, 3, 3, 2, 2, 3, 3, 1, 5, 3, 3, 2, 2, 1, 3, 1, 1, 1, 1, 1, 3, 1, 1, 2, 2, 2, 2, 2, 2, 2, 2, 2, 3, 2, 2, 3, 3, 3, 5, 2, 2, 4, 4, 3, 5, 3, 3, 4, 4, 4, 4, 4, 3, 2, 1, 1, 5, 3, 2, 5, 4, 2, 1, 1, 1, 3, 2, 2, 4, 4, 3, 3, 3, 3, 2, 2, 2, 5, 4, 4, 3, 3, 3, 3, 3, 3, 4, 3, 2, 4, 3, 3, 2, 1, 1, 3, 2, 2, 3, 3, 3, 4, 4, 3, 2, 2, 1, 5, 2, 2, 3, 2, 2, 5, 4, 3, 5, 4, 4, 4, 4, 3, 2, 1, 1, 3, 3, 3, 4, 4, 4, 1, 1, 1, 3, 3, 3, 5, 2, 1
 |0, 0, 3, 4, 3, 0, 6, 6, 0, 0, 6, 5, 0, 1, 0, 2, 2, 1, 4, 3, 0, 0, 7, 0, 0, 0, 7, 0, 0, 0, 0, 5, 3, 0, 3, 1, 9, 0, 0, 4, 0, 3, 0, 0, 6, 0, 2, 0, 0, 0, 0, 0, 6, 0, 3, 2, 0, 9, 0, 4, 3, 2, 0, 0, 0, 1, 4, 3, 0, 0, 0, 0, 0, 0, 3, 9, 0, 0, 6, 5, 0, 0, 9, 8, 7, 5, 0, 9, 5, 0, 10, 0, 0, 0, 9, 0, 0, 0, 7, 0, 5, 0, 0, 4, 3, 8, 0, 0, 0, 4, 0, 6, 0, 0, 0, 0, 0, 8, 7, 6, 0, 0, 4, 6, 0, 3, 7, 0, 4, 7, 6, 6, 10, 0, 0, 0, 0, 4, 9, 8, 0, 3, 2, 2, 5, 0, 3, 0, 0, 0, 0, 3, 0, 8, 0, 8, 0, 0, 4, 0, 0, 0, 7, 0, 3, 0, 6, 6, 0, 0, 0, 0, 0, 0, 0, 4, 0, 6, 0, 3, 0, 0, 0, 8, 0, 3, 6, 4, 3, 0, 8, 0, 0, 2, 1, 0, 7, 0, 0, 8, 7, 0, 3, 0, 9, 7, 0, 6, 5, 6, 0, 0, 4, 0, 4, 0, 2, 0, 2, 7, 0, 6, 10, 9, 0, 5, 0, 0, 0, 0, 2, 7, 0, 0, 0, 0, 0, 0, 0, 0, 0, 0, 1, 0, 0, 4, 10, 9, 0, 0, 0, 5, 6, 6, 5, 0, 2, 1, 0, 0, 0, 0, 0, 5, 0, 0, 7, 0, 0, 2, 0, 7, 7, 8, 0, 6, 0, 7, 4, 8, 0, 6, 9, 6, 5, 5, 2, 1, 0, 3, 1, 10, 0, 8, 0, 0, 0, 0, 0, 0
 |8, 7, 0, 0, 0, 4, 0, 0, 2, 5, 0, 0, 8, 0, 8, 0, 0, 0, 0, 0, 10, 5, 0, 3, 7, 4, 0, 7, 6, 5, 4, 0, 0, 7, 0, 0, 0, 8, 7, 0, 9, 0, 6, 5, 0, 10, 0, 9, 9, 8, 7, 6, 0, 4, 0, 0, 4, 0, 7, 0, 0, 0, 1, 4, 3, 0, 0, 0, 6, 6, 5, 4, 6, 3, 0, 0, 6, 4, 0, 0, 4, 8, 0, 0, 0, 0, 9, 0, 0, 4, 0, 6, 3, 6, 0, 4, 7, 5, 0, 6, 0, 4, 7, 0, 0, 0, 4, 3, 7, 0, 5, 0, 8, 7, 7, 6, 3, 0, 0, 0, 9, 8, 0, 0, 9, 0, 0, 4, 0, 0, 0, 0, 0, 2, 1, 9, 9, 0, 0, 0, 1, 0, 0, 0, 0, 5, 0, 4, 2, 2, 7, 0, 5, 0, 5, 0, 6, 5, 0, 7, 5, 5, 0, 8, 0, 4, 0, 0, 6, 4, 3, 7, 5, 5, 4, 0, 3, 0, 4, 0, 10, 8, 7, 0, 6, 0, 0, 0, 0, 4, 0, 3, 5, 0, 0, 9, 0, 8, 8, 0, 0, 1, 0, 1, 0, 0, 3, 0, 0, 0, 9, 7, 0, 10, 0, 4, 0, 8, 0, 0, 6, 0, 0, 0, 3, 0, 3, 2, 9, 8, 0, 0, 7, 7, 10, 7, 5, 7, 5, 4, 5, 4, 0, 8, 6, 0, 0, 0, 1, 7, 6, 0, 0, 0, 0, 9, 0, 0, 10, 8, 4, 8, 7, 0, 5, 4, 0, 6, 4, 0, 7, 0, 0, 0, 3, 0, 9, 0, 0, 0, 5, 0, 0, 0, 0, 0, 0, 0, 6, 0, 0, 0, 6, 0, 9, 9, 8, 9, 7, 6|];